
  22   10
  10   10   10   10   10   10   10   10   10   10

   0   0   0   0   0   0   0   0   0   0   0   4 2 4 7 8 
   1   0   0   0   0   0   0   0   0   0  10   2 6 3 
  10   0   0   0   0   0  10   0   0   0   0   1 5 
   3   0   0   0  10   0   0   0   0   0   0   1 5 
  10   0   0   0   0   0   0  10   0   0   0   4 13 12 10 9 
   8   0   0   0   0  10   0   0   0   0   0   3 13 11 9 
   6   0   0   0   0   0   0   0   0   0  10   3 13 11 9 
   1   0   0  10   0   0   0   0   0   0   0   2 13 11 
   9   0   0   0   0   0   0   0   0  10   0   5 21 17 16 15 14 
   2  10   0   0   0   0   0   0   0   0   0   5 21 17 16 15 14 
   6   0  10   0   0   0   0   0   0   0   0   1 12 
   6  10   0   0   0   0   0   0   0   0   0   4 21 20 17 16 
   7   0   0   0  10   0   0   0   0   0   0   3 21 15 14 
   4   0   0   0   0   0  10   0   0   0   0   3 20 19 18 
  10   0   0   0   0   0   0   0   0   0  10   3 20 19 18 
   1   0   0   0   0   0   0  10   0   0   0   2 19 18 
   1   0   0  10   0   0   0   0   0   0   0   1 18 
   2   0   0   0   0   0   0   0   0   0  10   1 22
   6   0   0   0   0   0   0   0  10   0   0   1 22
   2   0   0   0   0  10   0   0   0   0   0   1 22
   1   0   0   0   0   0   0   0   0   0  10   1 22
   0   0   0   0   0   0   0   0   0   0   0   0 
